letting n =  10
letting blocks =  [[1, 1], [1, 8], [1, 9], [2, 2], [2, 4], [3, 4], [3, 10], [4, 3], [4, 4], [4, 5], [4, 6], [4, 9], [5, 8], [5, 9], [6, 2], [6, 4], [6, 6], [6, 7], [6, 9], [7, 1], [7, 6], [8, 6], [10, 2], [10, 6], [10, 7], [10, 9]]
